c PMC file for PBN EPFL/random_control/dec_distill_EPFL/random_control/dec_miter written by probABC
p cnf 1112 2631
c ind 1 2 3 4 5 6 7 8 997 998 999 1000 1001 1002 1003 1004 1005 1006 1007 1008 1009 1010 1011 1012 1013 1014 1015 1016 1017 1018 1019 1020 1021 1022 1023 1024 1025 1026 1027 1028 1029 1030 1031 1032 1033 1034 1035 1036 1037 1038 1039 1040 1041 1042 1043 1044 1045 1046 1047 1048 1049 1050 1051 1052 1053 1054 1055 1056 1057 1058 1059 1060 1061 1062 1063 1064 1065 1066 1067 1068 1069 1070 1071 1072 1073 1074 1075 1076 1077 1078 1079 1080 1081 1082 1083 0
39 5 6 0
-39 -5 0
-39 -6 0
40 7 -8 0
-40 -7 0
-40 8 0
41 -39 -40 0
-41 39 0
-41 40 0
42 1 3 0
-42 -1 0
-42 -3 0
43 2 4 0
-43 -2 0
-43 -4 0
44 -42 -43 0
-44 42 0
-44 43 0
46 -1 3 0
-46 1 0
-46 -3 0
47 -43 -46 0
-47 43 0
-47 46 0
49 -2 4 0
-49 2 0
-49 -4 0
50 -9 49 0
-50 9 0
-50 -49 0
51 9 -49 0
-51 -9 0
-51 49 0
52 50 51 0
-52 -50 0
-52 -51 0
53 -42 52 0
-53 42 0
-53 -52 0
54 -41 -53 0
-54 41 0
-54 53 0
55 -46 52 0
-55 46 0
-55 -52 0
56 -41 -55 0
-56 41 0
-56 55 0
57 1 -3 0
-57 -1 0
-57 3 0
58 -43 -57 0
-58 43 0
-58 57 0
60 -1 -3 0
-60 1 0
-60 3 0
61 -43 -60 0
-61 43 0
-61 60 0
63 52 -57 0
-63 -52 0
-63 57 0
64 -41 -63 0
-64 41 0
-64 63 0
65 52 -60 0
-65 -52 0
-65 60 0
66 -41 -65 0
-66 41 0
-66 65 0
67 2 -4 0
-67 -2 0
-67 4 0
68 -42 -67 0
-68 42 0
-68 67 0
70 -46 -67 0
-70 46 0
-70 67 0
72 -2 -4 0
-72 2 0
-72 4 0
73 -42 -72 0
-73 42 0
-73 72 0
75 -46 -72 0
-75 46 0
-75 72 0
77 -57 -67 0
-77 57 0
-77 67 0
79 -60 -67 0
-79 60 0
-79 67 0
81 -57 -72 0
-81 57 0
-81 72 0
83 -60 -72 0
-83 60 0
-83 72 0
85 -5 6 0
-85 5 0
-85 -6 0
86 -40 -85 0
-86 40 0
-86 85 0
89 -53 -86 0
-89 53 0
-89 86 0
90 -55 -86 0
-90 55 0
-90 86 0
93 -63 -86 0
-93 63 0
-93 86 0
94 -65 -86 0
-94 65 0
-94 86 0
95 -10 94 0
-95 10 0
-95 -94 0
96 10 -94 0
-96 -10 0
-96 94 0
97 95 96 0
-97 -95 0
-97 -96 0
104 -81 -86 0
-104 81 0
-104 86 0
105 -11 104 0
-105 11 0
-105 -104 0
106 11 -104 0
-106 -11 0
-106 104 0
107 105 106 0
-107 -105 0
-107 -106 0
109 5 -6 0
-109 -5 0
-109 6 0
110 -40 -109 0
-110 40 0
-110 109 0
113 -53 -110 0
-113 53 0
-113 110 0
114 -55 -110 0
-114 55 0
-114 110 0
117 -63 -110 0
-117 63 0
-117 110 0
118 -65 -110 0
-118 65 0
-118 110 0
124 -79 -110 0
-124 79 0
-124 110 0
125 -12 124 0
-125 12 0
-125 -124 0
126 12 -124 0
-126 -12 0
-126 124 0
127 125 126 0
-127 -125 0
-127 -126 0
128 -81 -110 0
-128 81 0
-128 110 0
129 -13 128 0
-129 13 0
-129 -128 0
130 13 -128 0
-130 -13 0
-130 128 0
131 129 130 0
-131 -129 0
-131 -130 0
132 -83 -110 0
-132 83 0
-132 110 0
133 -14 132 0
-133 14 0
-133 -132 0
134 14 -132 0
-134 -14 0
-134 132 0
135 133 134 0
-135 -133 0
-135 -134 0
136 -5 -6 0
-136 5 0
-136 6 0
137 -40 -136 0
-137 40 0
-137 136 0
140 -53 -137 0
-140 53 0
-140 137 0
141 -55 -137 0
-141 55 0
-141 137 0
142 -15 141 0
-142 15 0
-142 -141 0
143 15 -141 0
-143 -15 0
-143 141 0
144 142 143 0
-144 -142 0
-144 -143 0
147 -63 -137 0
-147 63 0
-147 137 0
148 -65 -137 0
-148 65 0
-148 137 0
152 -75 -137 0
-152 75 0
-152 137 0
153 -16 152 0
-153 16 0
-153 -152 0
154 16 -152 0
-154 -16 0
-154 152 0
155 153 154 0
-155 -153 0
-155 -154 0
160 -7 -8 0
-160 7 0
-160 8 0
161 -39 -160 0
-161 39 0
-161 160 0
164 -53 -161 0
-164 53 0
-164 161 0
165 -55 -161 0
-165 55 0
-165 161 0
168 -63 -161 0
-168 63 0
-168 161 0
169 -65 -161 0
-169 65 0
-169 161 0
178 -85 -160 0
-178 85 0
-178 160 0
179 -17 178 0
-179 17 0
-179 -178 0
180 17 -178 0
-180 -17 0
-180 178 0
181 179 180 0
-181 -179 0
-181 -180 0
182 -44 181 0
-182 44 0
-182 -181 0
183 -47 181 0
-183 47 0
-183 -181 0
184 -53 181 0
-184 53 0
-184 -181 0
185 -55 181 0
-185 55 0
-185 -181 0
186 -58 181 0
-186 58 0
-186 -181 0
187 -61 181 0
-187 61 0
-187 -181 0
188 -63 181 0
-188 63 0
-188 -181 0
189 -65 181 0
-189 65 0
-189 -181 0
190 -68 181 0
-190 68 0
-190 -181 0
191 -70 181 0
-191 70 0
-191 -181 0
192 -73 181 0
-192 73 0
-192 -181 0
193 -75 181 0
-193 75 0
-193 -181 0
194 -77 181 0
-194 77 0
-194 -181 0
195 -79 181 0
-195 79 0
-195 -181 0
196 -81 181 0
-196 81 0
-196 -181 0
197 -83 181 0
-197 83 0
-197 -181 0
198 -109 -160 0
-198 109 0
-198 160 0
201 -53 -198 0
-201 53 0
-201 198 0
202 -55 -198 0
-202 55 0
-202 198 0
205 -63 -198 0
-205 63 0
-205 198 0
206 -65 -198 0
-206 65 0
-206 198 0
208 -70 -198 0
-208 70 0
-208 198 0
209 -18 208 0
-209 18 0
-209 -208 0
210 18 -208 0
-210 -18 0
-210 208 0
211 209 210 0
-211 -209 0
-211 -210 0
218 -136 -160 0
-218 136 0
-218 160 0
219 -44 -218 0
-219 44 0
-219 218 0
220 -19 219 0
-220 19 0
-220 -219 0
221 19 -219 0
-221 -19 0
-221 219 0
222 220 221 0
-222 -220 0
-222 -221 0
224 -53 -218 0
-224 53 0
-224 218 0
225 -55 -218 0
-225 55 0
-225 218 0
228 -63 -218 0
-228 63 0
-228 218 0
229 -65 -218 0
-229 65 0
-229 218 0
230 -68 -218 0
-230 68 0
-230 218 0
231 -20 230 0
-231 20 0
-231 -230 0
232 20 -230 0
-232 -20 0
-232 230 0
233 231 232 0
-233 -231 0
-233 -232 0
240 -83 -218 0
-240 83 0
-240 218 0
241 -21 240 0
-241 21 0
-241 -240 0
242 21 -240 0
-242 -21 0
-242 240 0
243 241 242 0
-243 -241 0
-243 -242 0
244 7 8 0
-244 -7 0
-244 -8 0
245 -39 -244 0
-245 39 0
-245 244 0
246 -22 245 0
-246 22 0
-246 -245 0
247 22 -245 0
-247 -22 0
-247 245 0
248 246 247 0
-248 -246 0
-248 -247 0
249 -44 248 0
-249 44 0
-249 -248 0
250 -23 249 0
-250 23 0
-250 -249 0
251 23 -249 0
-251 -23 0
-251 249 0
252 250 251 0
-252 -250 0
-252 -251 0
253 -47 248 0
-253 47 0
-253 -248 0
254 -53 248 0
-254 53 0
-254 -248 0
255 -55 248 0
-255 55 0
-255 -248 0
256 -58 248 0
-256 58 0
-256 -248 0
257 -61 248 0
-257 61 0
-257 -248 0
258 -63 248 0
-258 63 0
-258 -248 0
259 -65 248 0
-259 65 0
-259 -248 0
260 -68 248 0
-260 68 0
-260 -248 0
261 -70 248 0
-261 70 0
-261 -248 0
262 -73 248 0
-262 73 0
-262 -248 0
263 -75 248 0
-263 75 0
-263 -248 0
264 -77 248 0
-264 77 0
-264 -248 0
265 -79 248 0
-265 79 0
-265 -248 0
266 -81 248 0
-266 81 0
-266 -248 0
267 -83 248 0
-267 83 0
-267 -248 0
268 -85 -244 0
-268 85 0
-268 244 0
271 -53 -268 0
-271 53 0
-271 268 0
272 -55 -268 0
-272 55 0
-272 268 0
275 -63 -268 0
-275 63 0
-275 268 0
276 -65 -268 0
-276 65 0
-276 268 0
277 -68 -268 0
-277 68 0
-277 268 0
278 -24 277 0
-278 24 0
-278 -277 0
279 24 -277 0
-279 -24 0
-279 277 0
280 278 279 0
-280 -278 0
-280 -279 0
283 -75 -268 0
-283 75 0
-283 268 0
284 -25 283 0
-284 25 0
-284 -283 0
285 25 -283 0
-285 -25 0
-285 283 0
286 284 285 0
-286 -284 0
-286 -285 0
291 -109 -244 0
-291 109 0
-291 244 0
294 -53 -291 0
-294 53 0
-294 291 0
295 -55 -291 0
-295 55 0
-295 291 0
298 -63 -291 0
-298 63 0
-298 291 0
299 -65 -291 0
-299 65 0
-299 291 0
308 -136 -244 0
-308 136 0
-308 244 0
311 -53 -308 0
-311 53 0
-311 308 0
312 -55 -308 0
-312 55 0
-312 308 0
315 -63 -308 0
-315 63 0
-315 308 0
316 -65 -308 0
-316 65 0
-316 308 0
319 -73 -308 0
-319 73 0
-319 308 0
320 -26 319 0
-320 26 0
-320 -319 0
321 26 -319 0
-321 -26 0
-321 319 0
322 320 321 0
-322 -320 0
-322 -321 0
328 -7 8 0
-328 7 0
-328 -8 0
329 -39 -328 0
-329 39 0
-329 328 0
332 -53 -329 0
-332 53 0
-332 329 0
333 -27 332 0
-333 27 0
-333 -332 0
334 27 -332 0
-334 -27 0
-334 332 0
335 333 334 0
-335 -333 0
-335 -334 0
336 -55 -329 0
-336 55 0
-336 329 0
339 -63 -329 0
-339 63 0
-339 329 0
340 -28 339 0
-340 28 0
-340 -339 0
341 28 -339 0
-341 -28 0
-341 339 0
342 340 341 0
-342 -340 0
-342 -341 0
343 -65 -329 0
-343 65 0
-343 329 0
347 -75 -329 0
-347 75 0
-347 329 0
348 -29 347 0
-348 29 0
-348 -347 0
349 29 -347 0
-349 -29 0
-349 347 0
350 348 349 0
-350 -348 0
-350 -349 0
355 -85 -328 0
-355 85 0
-355 328 0
356 -44 -355 0
-356 44 0
-356 355 0
357 -30 356 0
-357 30 0
-357 -356 0
358 30 -356 0
-358 -30 0
-358 356 0
359 357 358 0
-359 -357 0
-359 -358 0
361 -53 -355 0
-361 53 0
-361 355 0
362 -55 -355 0
-362 55 0
-362 355 0
365 -63 -355 0
-365 63 0
-365 355 0
366 -65 -355 0
-366 65 0
-366 355 0
371 -77 -355 0
-371 77 0
-371 355 0
372 -31 371 0
-372 31 0
-372 -371 0
373 31 -371 0
-373 -31 0
-373 371 0
374 372 373 0
-374 -372 0
-374 -373 0
378 -109 -328 0
-378 109 0
-378 328 0
379 -32 378 0
-379 32 0
-379 -378 0
380 32 -378 0
-380 -32 0
-380 378 0
381 379 380 0
-381 -379 0
-381 -380 0
382 -44 381 0
-382 44 0
-382 -381 0
383 -47 381 0
-383 47 0
-383 -381 0
384 -53 381 0
-384 53 0
-384 -381 0
385 -55 381 0
-385 55 0
-385 -381 0
386 -58 381 0
-386 58 0
-386 -381 0
387 -61 381 0
-387 61 0
-387 -381 0
388 -63 381 0
-388 63 0
-388 -381 0
389 -65 381 0
-389 65 0
-389 -381 0
390 -68 381 0
-390 68 0
-390 -381 0
391 -70 381 0
-391 70 0
-391 -381 0
392 -73 381 0
-392 73 0
-392 -381 0
393 -75 381 0
-393 75 0
-393 -381 0
394 -77 381 0
-394 77 0
-394 -381 0
395 -33 394 0
-395 33 0
-395 -394 0
396 33 -394 0
-396 -33 0
-396 394 0
397 395 396 0
-397 -395 0
-397 -396 0
398 -79 381 0
-398 79 0
-398 -381 0
399 -81 381 0
-399 81 0
-399 -381 0
400 -83 381 0
-400 83 0
-400 -381 0
401 -34 400 0
-401 34 0
-401 -400 0
402 34 -400 0
-402 -34 0
-402 400 0
403 401 402 0
-403 -401 0
-403 -402 0
404 -136 -328 0
-404 136 0
-404 328 0
407 -53 -404 0
-407 53 0
-407 404 0
408 -35 407 0
-408 35 0
-408 -407 0
409 35 -407 0
-409 -35 0
-409 407 0
410 408 409 0
-410 -408 0
-410 -409 0
411 -55 -404 0
-411 55 0
-411 404 0
412 -36 411 0
-412 36 0
-412 -411 0
413 36 -411 0
-413 -36 0
-413 411 0
414 412 413 0
-414 -412 0
-414 -413 0
417 -63 -404 0
-417 63 0
-417 404 0
418 -65 -404 0
-418 65 0
-418 404 0
425 -81 -404 0
-425 81 0
-425 404 0
426 -37 425 0
-426 37 0
-426 -425 0
427 37 -425 0
-427 -37 0
-427 425 0
428 426 427 0
-428 -426 0
-428 -427 0
430 -42 -49 0
-430 42 0
-430 49 0
431 -41 -430 0
-431 41 0
-431 430 0
432 -46 -49 0
-432 46 0
-432 49 0
433 -41 -432 0
-433 41 0
-433 432 0
434 -49 -57 0
-434 49 0
-434 57 0
435 -41 -434 0
-435 41 0
-435 434 0
436 -49 -60 0
-436 49 0
-436 60 0
437 -41 -436 0
-437 41 0
-437 436 0
438 -86 -430 0
-438 86 0
-438 430 0
439 -86 -432 0
-439 86 0
-439 432 0
440 -86 -434 0
-440 86 0
-440 434 0
441 -86 -436 0
-441 86 0
-441 436 0
442 -110 -430 0
-442 110 0
-442 430 0
443 -110 -432 0
-443 110 0
-443 432 0
444 -110 -434 0
-444 110 0
-444 434 0
445 -110 -436 0
-445 110 0
-445 436 0
446 -137 -430 0
-446 137 0
-446 430 0
447 -137 -432 0
-447 137 0
-447 432 0
448 -137 -434 0
-448 137 0
-448 434 0
449 -137 -436 0
-449 137 0
-449 436 0
450 -161 -430 0
-450 161 0
-450 430 0
451 -161 -432 0
-451 161 0
-451 432 0
452 -161 -434 0
-452 161 0
-452 434 0
453 -161 -436 0
-453 161 0
-453 436 0
454 -44 -178 0
-454 44 0
-454 178 0
455 -47 -178 0
-455 47 0
-455 178 0
456 -178 -430 0
-456 178 0
-456 430 0
457 -178 -432 0
-457 178 0
-457 432 0
458 -58 -178 0
-458 58 0
-458 178 0
459 -61 -178 0
-459 61 0
-459 178 0
460 -178 -434 0
-460 178 0
-460 434 0
461 -178 -436 0
-461 178 0
-461 436 0
462 -68 -178 0
-462 68 0
-462 178 0
463 -70 -178 0
-463 70 0
-463 178 0
464 -73 -178 0
-464 73 0
-464 178 0
465 -75 -178 0
-465 75 0
-465 178 0
466 -77 -178 0
-466 77 0
-466 178 0
467 -79 -178 0
-467 79 0
-467 178 0
468 -81 -178 0
-468 81 0
-468 178 0
469 -83 -178 0
-469 83 0
-469 178 0
470 -198 -430 0
-470 198 0
-470 430 0
471 -198 -432 0
-471 198 0
-471 432 0
472 -198 -434 0
-472 198 0
-472 434 0
473 -198 -436 0
-473 198 0
-473 436 0
474 -218 -430 0
-474 218 0
-474 430 0
475 -218 -432 0
-475 218 0
-475 432 0
476 -218 -434 0
-476 218 0
-476 434 0
477 -218 -436 0
-477 218 0
-477 436 0
478 -44 -245 0
-478 44 0
-478 245 0
479 -47 -245 0
-479 47 0
-479 245 0
480 -245 -430 0
-480 245 0
-480 430 0
481 -245 -432 0
-481 245 0
-481 432 0
482 -58 -245 0
-482 58 0
-482 245 0
483 -61 -245 0
-483 61 0
-483 245 0
484 -245 -434 0
-484 245 0
-484 434 0
485 -245 -436 0
-485 245 0
-485 436 0
486 -68 -245 0
-486 68 0
-486 245 0
487 -70 -245 0
-487 70 0
-487 245 0
488 -73 -245 0
-488 73 0
-488 245 0
489 -75 -245 0
-489 75 0
-489 245 0
490 -77 -245 0
-490 77 0
-490 245 0
491 -79 -245 0
-491 79 0
-491 245 0
492 -81 -245 0
-492 81 0
-492 245 0
493 -83 -245 0
-493 83 0
-493 245 0
494 -268 -430 0
-494 268 0
-494 430 0
495 -268 -432 0
-495 268 0
-495 432 0
496 -268 -434 0
-496 268 0
-496 434 0
497 -268 -436 0
-497 268 0
-497 436 0
498 -291 -430 0
-498 291 0
-498 430 0
499 -291 -432 0
-499 291 0
-499 432 0
500 -291 -434 0
-500 291 0
-500 434 0
501 -291 -436 0
-501 291 0
-501 436 0
502 -308 -430 0
-502 308 0
-502 430 0
503 -308 -432 0
-503 308 0
-503 432 0
504 -308 -434 0
-504 308 0
-504 434 0
505 -308 -436 0
-505 308 0
-505 436 0
506 -329 -430 0
-506 329 0
-506 430 0
507 -329 -432 0
-507 329 0
-507 432 0
508 -329 -434 0
-508 329 0
-508 434 0
509 -329 -436 0
-509 329 0
-509 436 0
510 -355 -430 0
-510 355 0
-510 430 0
511 -355 -432 0
-511 355 0
-511 432 0
512 -355 -434 0
-512 355 0
-512 434 0
513 -355 -436 0
-513 355 0
-513 436 0
514 -44 -378 0
-514 44 0
-514 378 0
515 -47 -378 0
-515 47 0
-515 378 0
516 -378 -430 0
-516 378 0
-516 430 0
517 -378 -432 0
-517 378 0
-517 432 0
518 -58 -378 0
-518 58 0
-518 378 0
519 -61 -378 0
-519 61 0
-519 378 0
520 -378 -434 0
-520 378 0
-520 434 0
521 -378 -436 0
-521 378 0
-521 436 0
522 -68 -378 0
-522 68 0
-522 378 0
523 -70 -378 0
-523 70 0
-523 378 0
524 -73 -378 0
-524 73 0
-524 378 0
525 -75 -378 0
-525 75 0
-525 378 0
526 -77 -378 0
-526 77 0
-526 378 0
527 -79 -378 0
-527 79 0
-527 378 0
528 -81 -378 0
-528 81 0
-528 378 0
529 -83 -378 0
-529 83 0
-529 378 0
530 -404 -430 0
-530 404 0
-530 430 0
531 -404 -432 0
-531 404 0
-531 432 0
532 -404 -434 0
-532 404 0
-532 434 0
533 -404 -436 0
-533 404 0
-533 436 0
534 54 -431 0
-534 -54 0
-534 431 0
535 -54 431 0
-535 54 0
-535 -431 0
536 534 535 0
-536 -534 0
-536 -535 0
537 56 -433 0
-537 -56 0
-537 433 0
538 -56 433 0
-538 56 0
-538 -433 0
539 537 538 0
-539 -537 0
-539 -538 0
540 64 -435 0
-540 -64 0
-540 435 0
541 -64 435 0
-541 64 0
-541 -435 0
542 540 541 0
-542 -540 0
-542 -541 0
543 66 -437 0
-543 -66 0
-543 437 0
544 -66 437 0
-544 66 0
-544 -437 0
545 543 544 0
-545 -543 0
-545 -544 0
546 89 -438 0
-546 -89 0
-546 438 0
547 -89 438 0
-547 89 0
-547 -438 0
548 546 547 0
-548 -546 0
-548 -547 0
549 90 -439 0
-549 -90 0
-549 439 0
550 -90 439 0
-550 90 0
-550 -439 0
551 549 550 0
-551 -549 0
-551 -550 0
552 93 -440 0
-552 -93 0
-552 440 0
553 -93 440 0
-553 93 0
-553 -440 0
554 552 553 0
-554 -552 0
-554 -553 0
555 -97 -441 0
-555 97 0
-555 441 0
556 97 441 0
-556 -97 0
-556 -441 0
557 555 556 0
-557 -555 0
-557 -556 0
558 -104 -107 0
-558 104 0
-558 107 0
559 104 107 0
-559 -104 0
-559 -107 0
560 558 559 0
-560 -558 0
-560 -559 0
561 113 -442 0
-561 -113 0
-561 442 0
562 -113 442 0
-562 113 0
-562 -442 0
563 561 562 0
-563 -561 0
-563 -562 0
564 114 -443 0
-564 -114 0
-564 443 0
565 -114 443 0
-565 114 0
-565 -443 0
566 564 565 0
-566 -564 0
-566 -565 0
567 117 -444 0
-567 -117 0
-567 444 0
568 -117 444 0
-568 117 0
-568 -444 0
569 567 568 0
-569 -567 0
-569 -568 0
570 118 -445 0
-570 -118 0
-570 445 0
571 -118 445 0
-571 118 0
-571 -445 0
572 570 571 0
-572 -570 0
-572 -571 0
573 -124 -127 0
-573 124 0
-573 127 0
574 124 127 0
-574 -124 0
-574 -127 0
575 573 574 0
-575 -573 0
-575 -574 0
576 -128 -131 0
-576 128 0
-576 131 0
577 128 131 0
-577 -128 0
-577 -131 0
578 576 577 0
-578 -576 0
-578 -577 0
579 -132 -135 0
-579 132 0
-579 135 0
580 132 135 0
-580 -132 0
-580 -135 0
581 579 580 0
-581 -579 0
-581 -580 0
582 140 -446 0
-582 -140 0
-582 446 0
583 -140 446 0
-583 140 0
-583 -446 0
584 582 583 0
-584 -582 0
-584 -583 0
585 -144 -447 0
-585 144 0
-585 447 0
586 144 447 0
-586 -144 0
-586 -447 0
587 585 586 0
-587 -585 0
-587 -586 0
588 147 -448 0
-588 -147 0
-588 448 0
589 -147 448 0
-589 147 0
-589 -448 0
590 588 589 0
-590 -588 0
-590 -589 0
591 148 -449 0
-591 -148 0
-591 449 0
592 -148 449 0
-592 148 0
-592 -449 0
593 591 592 0
-593 -591 0
-593 -592 0
594 -152 -155 0
-594 152 0
-594 155 0
595 152 155 0
-595 -152 0
-595 -155 0
596 594 595 0
-596 -594 0
-596 -595 0
597 164 -450 0
-597 -164 0
-597 450 0
598 -164 450 0
-598 164 0
-598 -450 0
599 597 598 0
-599 -597 0
-599 -598 0
600 165 -451 0
-600 -165 0
-600 451 0
601 -165 451 0
-601 165 0
-601 -451 0
602 600 601 0
-602 -600 0
-602 -601 0
603 168 -452 0
-603 -168 0
-603 452 0
604 -168 452 0
-604 168 0
-604 -452 0
605 603 604 0
-605 -603 0
-605 -604 0
606 169 -453 0
-606 -169 0
-606 453 0
607 -169 453 0
-607 169 0
-607 -453 0
608 606 607 0
-608 -606 0
-608 -607 0
609 182 -454 0
-609 -182 0
-609 454 0
610 -182 454 0
-610 182 0
-610 -454 0
611 609 610 0
-611 -609 0
-611 -610 0
612 183 -455 0
-612 -183 0
-612 455 0
613 -183 455 0
-613 183 0
-613 -455 0
614 612 613 0
-614 -612 0
-614 -613 0
615 184 -456 0
-615 -184 0
-615 456 0
616 -184 456 0
-616 184 0
-616 -456 0
617 615 616 0
-617 -615 0
-617 -616 0
618 185 -457 0
-618 -185 0
-618 457 0
619 -185 457 0
-619 185 0
-619 -457 0
620 618 619 0
-620 -618 0
-620 -619 0
621 186 -458 0
-621 -186 0
-621 458 0
622 -186 458 0
-622 186 0
-622 -458 0
623 621 622 0
-623 -621 0
-623 -622 0
624 187 -459 0
-624 -187 0
-624 459 0
625 -187 459 0
-625 187 0
-625 -459 0
626 624 625 0
-626 -624 0
-626 -625 0
627 188 -460 0
-627 -188 0
-627 460 0
628 -188 460 0
-628 188 0
-628 -460 0
629 627 628 0
-629 -627 0
-629 -628 0
630 189 -461 0
-630 -189 0
-630 461 0
631 -189 461 0
-631 189 0
-631 -461 0
632 630 631 0
-632 -630 0
-632 -631 0
633 190 -462 0
-633 -190 0
-633 462 0
634 -190 462 0
-634 190 0
-634 -462 0
635 633 634 0
-635 -633 0
-635 -634 0
636 191 -463 0
-636 -191 0
-636 463 0
637 -191 463 0
-637 191 0
-637 -463 0
638 636 637 0
-638 -636 0
-638 -637 0
639 192 -464 0
-639 -192 0
-639 464 0
640 -192 464 0
-640 192 0
-640 -464 0
641 639 640 0
-641 -639 0
-641 -640 0
642 193 -465 0
-642 -193 0
-642 465 0
643 -193 465 0
-643 193 0
-643 -465 0
644 642 643 0
-644 -642 0
-644 -643 0
645 194 -466 0
-645 -194 0
-645 466 0
646 -194 466 0
-646 194 0
-646 -466 0
647 645 646 0
-647 -645 0
-647 -646 0
648 195 -467 0
-648 -195 0
-648 467 0
649 -195 467 0
-649 195 0
-649 -467 0
650 648 649 0
-650 -648 0
-650 -649 0
651 196 -468 0
-651 -196 0
-651 468 0
652 -196 468 0
-652 196 0
-652 -468 0
653 651 652 0
-653 -651 0
-653 -652 0
654 197 -469 0
-654 -197 0
-654 469 0
655 -197 469 0
-655 197 0
-655 -469 0
656 654 655 0
-656 -654 0
-656 -655 0
657 201 -470 0
-657 -201 0
-657 470 0
658 -201 470 0
-658 201 0
-658 -470 0
659 657 658 0
-659 -657 0
-659 -658 0
660 202 -471 0
-660 -202 0
-660 471 0
661 -202 471 0
-661 202 0
-661 -471 0
662 660 661 0
-662 -660 0
-662 -661 0
663 205 -472 0
-663 -205 0
-663 472 0
664 -205 472 0
-664 205 0
-664 -472 0
665 663 664 0
-665 -663 0
-665 -664 0
666 206 -473 0
-666 -206 0
-666 473 0
667 -206 473 0
-667 206 0
-667 -473 0
668 666 667 0
-668 -666 0
-668 -667 0
669 -208 -211 0
-669 208 0
-669 211 0
670 208 211 0
-670 -208 0
-670 -211 0
671 669 670 0
-671 -669 0
-671 -670 0
672 -219 -222 0
-672 219 0
-672 222 0
673 219 222 0
-673 -219 0
-673 -222 0
674 672 673 0
-674 -672 0
-674 -673 0
675 224 -474 0
-675 -224 0
-675 474 0
676 -224 474 0
-676 224 0
-676 -474 0
677 675 676 0
-677 -675 0
-677 -676 0
678 225 -475 0
-678 -225 0
-678 475 0
679 -225 475 0
-679 225 0
-679 -475 0
680 678 679 0
-680 -678 0
-680 -679 0
681 228 -476 0
-681 -228 0
-681 476 0
682 -228 476 0
-682 228 0
-682 -476 0
683 681 682 0
-683 -681 0
-683 -682 0
684 229 -477 0
-684 -229 0
-684 477 0
685 -229 477 0
-685 229 0
-685 -477 0
686 684 685 0
-686 -684 0
-686 -685 0
687 -230 -233 0
-687 230 0
-687 233 0
688 230 233 0
-688 -230 0
-688 -233 0
689 687 688 0
-689 -687 0
-689 -688 0
690 -240 -243 0
-690 240 0
-690 243 0
691 240 243 0
-691 -240 0
-691 -243 0
692 690 691 0
-692 -690 0
-692 -691 0
693 -252 -478 0
-693 252 0
-693 478 0
694 252 478 0
-694 -252 0
-694 -478 0
695 693 694 0
-695 -693 0
-695 -694 0
696 253 -479 0
-696 -253 0
-696 479 0
697 -253 479 0
-697 253 0
-697 -479 0
698 696 697 0
-698 -696 0
-698 -697 0
699 254 -480 0
-699 -254 0
-699 480 0
700 -254 480 0
-700 254 0
-700 -480 0
701 699 700 0
-701 -699 0
-701 -700 0
702 255 -481 0
-702 -255 0
-702 481 0
703 -255 481 0
-703 255 0
-703 -481 0
704 702 703 0
-704 -702 0
-704 -703 0
705 256 -482 0
-705 -256 0
-705 482 0
706 -256 482 0
-706 256 0
-706 -482 0
707 705 706 0
-707 -705 0
-707 -706 0
708 257 -483 0
-708 -257 0
-708 483 0
709 -257 483 0
-709 257 0
-709 -483 0
710 708 709 0
-710 -708 0
-710 -709 0
711 258 -484 0
-711 -258 0
-711 484 0
712 -258 484 0
-712 258 0
-712 -484 0
713 711 712 0
-713 -711 0
-713 -712 0
714 259 -485 0
-714 -259 0
-714 485 0
715 -259 485 0
-715 259 0
-715 -485 0
716 714 715 0
-716 -714 0
-716 -715 0
717 260 -486 0
-717 -260 0
-717 486 0
718 -260 486 0
-718 260 0
-718 -486 0
719 717 718 0
-719 -717 0
-719 -718 0
720 261 -487 0
-720 -261 0
-720 487 0
721 -261 487 0
-721 261 0
-721 -487 0
722 720 721 0
-722 -720 0
-722 -721 0
723 262 -488 0
-723 -262 0
-723 488 0
724 -262 488 0
-724 262 0
-724 -488 0
725 723 724 0
-725 -723 0
-725 -724 0
726 263 -489 0
-726 -263 0
-726 489 0
727 -263 489 0
-727 263 0
-727 -489 0
728 726 727 0
-728 -726 0
-728 -727 0
729 264 -490 0
-729 -264 0
-729 490 0
730 -264 490 0
-730 264 0
-730 -490 0
731 729 730 0
-731 -729 0
-731 -730 0
732 265 -491 0
-732 -265 0
-732 491 0
733 -265 491 0
-733 265 0
-733 -491 0
734 732 733 0
-734 -732 0
-734 -733 0
735 266 -492 0
-735 -266 0
-735 492 0
736 -266 492 0
-736 266 0
-736 -492 0
737 735 736 0
-737 -735 0
-737 -736 0
738 267 -493 0
-738 -267 0
-738 493 0
739 -267 493 0
-739 267 0
-739 -493 0
740 738 739 0
-740 -738 0
-740 -739 0
741 271 -494 0
-741 -271 0
-741 494 0
742 -271 494 0
-742 271 0
-742 -494 0
743 741 742 0
-743 -741 0
-743 -742 0
744 272 -495 0
-744 -272 0
-744 495 0
745 -272 495 0
-745 272 0
-745 -495 0
746 744 745 0
-746 -744 0
-746 -745 0
747 275 -496 0
-747 -275 0
-747 496 0
748 -275 496 0
-748 275 0
-748 -496 0
749 747 748 0
-749 -747 0
-749 -748 0
750 276 -497 0
-750 -276 0
-750 497 0
751 -276 497 0
-751 276 0
-751 -497 0
752 750 751 0
-752 -750 0
-752 -751 0
753 -277 -280 0
-753 277 0
-753 280 0
754 277 280 0
-754 -277 0
-754 -280 0
755 753 754 0
-755 -753 0
-755 -754 0
756 -283 -286 0
-756 283 0
-756 286 0
757 283 286 0
-757 -283 0
-757 -286 0
758 756 757 0
-758 -756 0
-758 -757 0
759 294 -498 0
-759 -294 0
-759 498 0
760 -294 498 0
-760 294 0
-760 -498 0
761 759 760 0
-761 -759 0
-761 -760 0
762 295 -499 0
-762 -295 0
-762 499 0
763 -295 499 0
-763 295 0
-763 -499 0
764 762 763 0
-764 -762 0
-764 -763 0
765 298 -500 0
-765 -298 0
-765 500 0
766 -298 500 0
-766 298 0
-766 -500 0
767 765 766 0
-767 -765 0
-767 -766 0
768 299 -501 0
-768 -299 0
-768 501 0
769 -299 501 0
-769 299 0
-769 -501 0
770 768 769 0
-770 -768 0
-770 -769 0
771 311 -502 0
-771 -311 0
-771 502 0
772 -311 502 0
-772 311 0
-772 -502 0
773 771 772 0
-773 -771 0
-773 -772 0
774 312 -503 0
-774 -312 0
-774 503 0
775 -312 503 0
-775 312 0
-775 -503 0
776 774 775 0
-776 -774 0
-776 -775 0
777 315 -504 0
-777 -315 0
-777 504 0
778 -315 504 0
-778 315 0
-778 -504 0
779 777 778 0
-779 -777 0
-779 -778 0
780 316 -505 0
-780 -316 0
-780 505 0
781 -316 505 0
-781 316 0
-781 -505 0
782 780 781 0
-782 -780 0
-782 -781 0
783 -319 -322 0
-783 319 0
-783 322 0
784 319 322 0
-784 -319 0
-784 -322 0
785 783 784 0
-785 -783 0
-785 -784 0
786 -335 -506 0
-786 335 0
-786 506 0
787 335 506 0
-787 -335 0
-787 -506 0
788 786 787 0
-788 -786 0
-788 -787 0
789 336 -507 0
-789 -336 0
-789 507 0
790 -336 507 0
-790 336 0
-790 -507 0
791 789 790 0
-791 -789 0
-791 -790 0
792 -342 -508 0
-792 342 0
-792 508 0
793 342 508 0
-793 -342 0
-793 -508 0
794 792 793 0
-794 -792 0
-794 -793 0
795 343 -509 0
-795 -343 0
-795 509 0
796 -343 509 0
-796 343 0
-796 -509 0
797 795 796 0
-797 -795 0
-797 -796 0
798 -347 -350 0
-798 347 0
-798 350 0
799 347 350 0
-799 -347 0
-799 -350 0
800 798 799 0
-800 -798 0
-800 -799 0
801 -356 -359 0
-801 356 0
-801 359 0
802 356 359 0
-802 -356 0
-802 -359 0
803 801 802 0
-803 -801 0
-803 -802 0
804 361 -510 0
-804 -361 0
-804 510 0
805 -361 510 0
-805 361 0
-805 -510 0
806 804 805 0
-806 -804 0
-806 -805 0
807 362 -511 0
-807 -362 0
-807 511 0
808 -362 511 0
-808 362 0
-808 -511 0
809 807 808 0
-809 -807 0
-809 -808 0
810 365 -512 0
-810 -365 0
-810 512 0
811 -365 512 0
-811 365 0
-811 -512 0
812 810 811 0
-812 -810 0
-812 -811 0
813 366 -513 0
-813 -366 0
-813 513 0
814 -366 513 0
-814 366 0
-814 -513 0
815 813 814 0
-815 -813 0
-815 -814 0
816 -371 -374 0
-816 371 0
-816 374 0
817 371 374 0
-817 -371 0
-817 -374 0
818 816 817 0
-818 -816 0
-818 -817 0
819 382 -514 0
-819 -382 0
-819 514 0
820 -382 514 0
-820 382 0
-820 -514 0
821 819 820 0
-821 -819 0
-821 -820 0
822 383 -515 0
-822 -383 0
-822 515 0
823 -383 515 0
-823 383 0
-823 -515 0
824 822 823 0
-824 -822 0
-824 -823 0
825 384 -516 0
-825 -384 0
-825 516 0
826 -384 516 0
-826 384 0
-826 -516 0
827 825 826 0
-827 -825 0
-827 -826 0
828 385 -517 0
-828 -385 0
-828 517 0
829 -385 517 0
-829 385 0
-829 -517 0
830 828 829 0
-830 -828 0
-830 -829 0
831 386 -518 0
-831 -386 0
-831 518 0
832 -386 518 0
-832 386 0
-832 -518 0
833 831 832 0
-833 -831 0
-833 -832 0
834 387 -519 0
-834 -387 0
-834 519 0
835 -387 519 0
-835 387 0
-835 -519 0
836 834 835 0
-836 -834 0
-836 -835 0
837 388 -520 0
-837 -388 0
-837 520 0
838 -388 520 0
-838 388 0
-838 -520 0
839 837 838 0
-839 -837 0
-839 -838 0
840 389 -521 0
-840 -389 0
-840 521 0
841 -389 521 0
-841 389 0
-841 -521 0
842 840 841 0
-842 -840 0
-842 -841 0
843 390 -522 0
-843 -390 0
-843 522 0
844 -390 522 0
-844 390 0
-844 -522 0
845 843 844 0
-845 -843 0
-845 -844 0
846 391 -523 0
-846 -391 0
-846 523 0
847 -391 523 0
-847 391 0
-847 -523 0
848 846 847 0
-848 -846 0
-848 -847 0
849 392 -524 0
-849 -392 0
-849 524 0
850 -392 524 0
-850 392 0
-850 -524 0
851 849 850 0
-851 -849 0
-851 -850 0
852 393 -525 0
-852 -393 0
-852 525 0
853 -393 525 0
-853 393 0
-853 -525 0
854 852 853 0
-854 -852 0
-854 -853 0
855 -397 -526 0
-855 397 0
-855 526 0
856 397 526 0
-856 -397 0
-856 -526 0
857 855 856 0
-857 -855 0
-857 -856 0
858 398 -527 0
-858 -398 0
-858 527 0
859 -398 527 0
-859 398 0
-859 -527 0
860 858 859 0
-860 -858 0
-860 -859 0
861 399 -528 0
-861 -399 0
-861 528 0
862 -399 528 0
-862 399 0
-862 -528 0
863 861 862 0
-863 -861 0
-863 -862 0
864 -403 -529 0
-864 403 0
-864 529 0
865 403 529 0
-865 -403 0
-865 -529 0
866 864 865 0
-866 -864 0
-866 -865 0
867 -410 -530 0
-867 410 0
-867 530 0
868 410 530 0
-868 -410 0
-868 -530 0
869 867 868 0
-869 -867 0
-869 -868 0
870 -414 -531 0
-870 414 0
-870 531 0
871 414 531 0
-871 -414 0
-871 -531 0
872 870 871 0
-872 -870 0
-872 -871 0
873 417 -532 0
-873 -417 0
-873 532 0
874 -417 532 0
-874 417 0
-874 -532 0
875 873 874 0
-875 -873 0
-875 -874 0
876 418 -533 0
-876 -418 0
-876 533 0
877 -418 533 0
-877 418 0
-877 -533 0
878 876 877 0
-878 -876 0
-878 -877 0
879 -425 -428 0
-879 425 0
-879 428 0
880 425 428 0
-880 -425 0
-880 -428 0
881 879 880 0
-881 -879 0
-881 -880 0
882 -536 -539 0
-882 536 0
-882 539 0
883 -542 -545 0
-883 542 0
-883 545 0
884 -882 -883 0
-884 882 0
-884 883 0
885 -548 -551 0
-885 548 0
-885 551 0
886 -554 -557 0
-886 554 0
-886 557 0
887 -885 -886 0
-887 885 0
-887 886 0
888 -560 -887 0
-888 560 0
-888 887 0
889 -884 -888 0
-889 884 0
-889 888 0
890 -563 -566 0
-890 563 0
-890 566 0
891 -569 -572 0
-891 569 0
-891 572 0
892 -890 -891 0
-892 890 0
-892 891 0
893 -578 -581 0
-893 578 0
-893 581 0
894 -575 -893 0
-894 575 0
-894 893 0
895 -892 -894 0
-895 892 0
-895 894 0
896 -584 -587 0
-896 584 0
-896 587 0
897 -590 -593 0
-897 590 0
-897 593 0
898 -896 -897 0
-898 896 0
-898 897 0
899 -596 -898 0
-899 596 0
-899 898 0
900 -895 -899 0
-900 895 0
-900 899 0
901 -889 -900 0
-901 889 0
-901 900 0
902 -599 -602 0
-902 599 0
-902 602 0
903 -605 -608 0
-903 605 0
-903 608 0
904 -902 -903 0
-904 902 0
-904 903 0
905 -611 -614 0
-905 611 0
-905 614 0
906 -617 -620 0
-906 617 0
-906 620 0
907 -905 -906 0
-907 905 0
-907 906 0
908 -623 -626 0
-908 623 0
-908 626 0
909 -629 -632 0
-909 629 0
-909 632 0
910 -908 -909 0
-910 908 0
-910 909 0
911 -907 -910 0
-911 907 0
-911 910 0
912 -635 -638 0
-912 635 0
-912 638 0
913 -641 -644 0
-913 641 0
-913 644 0
914 -912 -913 0
-914 912 0
-914 913 0
915 -647 -650 0
-915 647 0
-915 650 0
916 -653 -656 0
-916 653 0
-916 656 0
917 -915 -916 0
-917 915 0
-917 916 0
918 -914 -917 0
-918 914 0
-918 917 0
919 -911 -918 0
-919 911 0
-919 918 0
920 -904 -919 0
-920 904 0
-920 919 0
921 -659 -662 0
-921 659 0
-921 662 0
922 -665 -668 0
-922 665 0
-922 668 0
923 -921 -922 0
-923 921 0
-923 922 0
924 -671 -923 0
-924 671 0
-924 923 0
925 -677 -680 0
-925 677 0
-925 680 0
926 -674 -925 0
-926 674 0
-926 925 0
927 -683 -686 0
-927 683 0
-927 686 0
928 -926 -927 0
-928 926 0
-928 927 0
929 -689 -692 0
-929 689 0
-929 692 0
930 -928 -929 0
-930 928 0
-930 929 0
931 -924 -930 0
-931 924 0
-931 930 0
932 -920 -931 0
-932 920 0
-932 931 0
933 -901 -932 0
-933 901 0
-933 932 0
934 -695 -698 0
-934 695 0
-934 698 0
935 -701 -704 0
-935 701 0
-935 704 0
936 -934 -935 0
-936 934 0
-936 935 0
937 -707 -710 0
-937 707 0
-937 710 0
938 -713 -716 0
-938 713 0
-938 716 0
939 -937 -938 0
-939 937 0
-939 938 0
940 -936 -939 0
-940 936 0
-940 939 0
941 -719 -722 0
-941 719 0
-941 722 0
942 -725 -728 0
-942 725 0
-942 728 0
943 -941 -942 0
-943 941 0
-943 942 0
944 -731 -734 0
-944 731 0
-944 734 0
945 -737 -740 0
-945 737 0
-945 740 0
946 -944 -945 0
-946 944 0
-946 945 0
947 -943 -946 0
-947 943 0
-947 946 0
948 -940 -947 0
-948 940 0
-948 947 0
949 -743 -746 0
-949 743 0
-949 746 0
950 -749 -752 0
-950 749 0
-950 752 0
951 -949 -950 0
-951 949 0
-951 950 0
952 -755 -758 0
-952 755 0
-952 758 0
953 -951 -952 0
-953 951 0
-953 952 0
954 -948 -953 0
-954 948 0
-954 953 0
955 -761 -764 0
-955 761 0
-955 764 0
956 -767 -770 0
-956 767 0
-956 770 0
957 -955 -956 0
-957 955 0
-957 956 0
958 -773 -776 0
-958 773 0
-958 776 0
959 -779 -782 0
-959 779 0
-959 782 0
960 -958 -959 0
-960 958 0
-960 959 0
961 -785 -960 0
-961 785 0
-961 960 0
962 -957 -961 0
-962 957 0
-962 961 0
963 -954 -962 0
-963 954 0
-963 962 0
964 -788 -791 0
-964 788 0
-964 791 0
965 -794 -797 0
-965 794 0
-965 797 0
966 -964 -965 0
-966 964 0
-966 965 0
967 -800 -966 0
-967 800 0
-967 966 0
968 -806 -809 0
-968 806 0
-968 809 0
969 -803 -968 0
-969 803 0
-969 968 0
970 -812 -815 0
-970 812 0
-970 815 0
971 -969 -970 0
-971 969 0
-971 970 0
972 -818 -971 0
-972 818 0
-972 971 0
973 -967 -972 0
-973 967 0
-973 972 0
974 -821 -824 0
-974 821 0
-974 824 0
975 -827 -830 0
-975 827 0
-975 830 0
976 -974 -975 0
-976 974 0
-976 975 0
977 -833 -836 0
-977 833 0
-977 836 0
978 -839 -842 0
-978 839 0
-978 842 0
979 -977 -978 0
-979 977 0
-979 978 0
980 -976 -979 0
-980 976 0
-980 979 0
981 -845 -848 0
-981 845 0
-981 848 0
982 -851 -854 0
-982 851 0
-982 854 0
983 -981 -982 0
-983 981 0
-983 982 0
984 -857 -860 0
-984 857 0
-984 860 0
985 -863 -866 0
-985 863 0
-985 866 0
986 -984 -985 0
-986 984 0
-986 985 0
987 -983 -986 0
-987 983 0
-987 986 0
988 -980 -987 0
-988 980 0
-988 987 0
989 -869 -872 0
-989 869 0
-989 872 0
990 -875 -878 0
-990 875 0
-990 878 0
991 -989 -990 0
-991 989 0
-991 990 0
992 -881 -991 0
-992 881 0
-992 991 0
993 -988 -992 0
-993 988 0
-993 992 0
994 -973 -993 0
-994 973 0
-994 993 0
995 -963 -994 0
-995 963 0
-995 994 0
996 -933 -995 0
-996 933 0
-996 995 0
38 996 0
-38 -996 0
38 0
9 -997 -1084 0
-9 997 0
-9 1084 0
1084 -998 -999 0
-1084 998 0
-1084 999 0
10 -1000 -1085 0
-10 1000 0
-10 1085 0
1085 -1001 -1002 0
-1085 1001 0
-1085 1002 0
11 -1003 -1086 0
-11 1003 0
-11 1086 0
1086 -1004 -1005 0
-1086 1004 0
-1086 1005 0
12 -1006 -1087 0
-12 1006 0
-12 1087 0
1087 -1007 -1008 0
-1087 1007 0
-1087 1008 0
13 -1009 -1088 0
-13 1009 0
-13 1088 0
1088 -1010 -1011 0
-1088 1010 0
-1088 1011 0
14 -1012 -1089 0
-14 1012 0
-14 1089 0
1089 -1013 -1014 0
-1089 1013 0
-1089 1014 0
15 -1015 -1090 0
-15 1015 0
-15 1090 0
1090 -1016 -1017 0
-1090 1016 0
-1090 1017 0
16 -1018 -1091 0
-16 1018 0
-16 1091 0
1091 -1019 -1020 0
-1091 1019 0
-1091 1020 0
17 -1021 -1092 0
-17 1021 0
-17 1092 0
1092 -1022 -1023 0
-1092 1022 0
-1092 1023 0
18 -1024 -1093 0
-18 1024 0
-18 1093 0
1093 -1025 -1026 0
-1093 1025 0
-1093 1026 0
19 -1027 -1094 0
-19 1027 0
-19 1094 0
1094 -1028 -1029 0
-1094 1028 0
-1094 1029 0
20 -1030 -1095 0
-20 1030 0
-20 1095 0
1095 -1031 -1032 0
-1095 1031 0
-1095 1032 0
21 -1033 -1096 0
-21 1033 0
-21 1096 0
1096 -1034 -1035 0
-1096 1034 0
-1096 1035 0
22 -1036 -1097 0
-22 1036 0
-22 1097 0
1097 -1037 -1038 0
-1097 1037 0
-1097 1038 0
23 -1039 -1098 0
-23 1039 0
-23 1098 0
1098 -1040 -1041 0
-1098 1040 0
-1098 1041 0
24 -1042 -1099 0
-24 1042 0
-24 1099 0
1099 -1043 -1044 0
-1099 1043 0
-1099 1044 0
25 -1045 -1100 0
-25 1045 0
-25 1100 0
1100 -1046 -1047 0
-1100 1046 0
-1100 1047 0
26 -1048 -1101 0
-26 1048 0
-26 1101 0
1101 -1049 -1050 0
-1101 1049 0
-1101 1050 0
27 -1051 -1102 0
-27 1051 0
-27 1102 0
1102 -1052 -1053 0
-1102 1052 0
-1102 1053 0
28 -1054 -1103 0
-28 1054 0
-28 1103 0
1103 -1055 -1056 0
-1103 1055 0
-1103 1056 0
29 -1057 -1104 0
-29 1057 0
-29 1104 0
1104 -1058 -1059 0
-1104 1058 0
-1104 1059 0
30 -1060 -1105 0
-30 1060 0
-30 1105 0
1105 -1061 -1062 0
-1105 1061 0
-1105 1062 0
31 -1063 -1106 0
-31 1063 0
-31 1106 0
1106 -1064 -1065 0
-1106 1064 0
-1106 1065 0
32 -1066 -1107 0
-32 1066 0
-32 1107 0
1107 -1067 -1068 0
-1107 1067 0
-1107 1068 0
33 -1069 -1108 0
-33 1069 0
-33 1108 0
1108 -1070 -1071 0
-1108 1070 0
-1108 1071 0
34 -1072 -1109 0
-34 1072 0
-34 1109 0
1109 -1073 -1074 0
-1109 1073 0
-1109 1074 0
35 -1075 -1110 0
-35 1075 0
-35 1110 0
1110 -1076 -1077 0
-1110 1076 0
-1110 1077 0
36 -1078 -1111 0
-36 1078 0
-36 1111 0
1111 -1079 -1080 0
-1111 1079 0
-1111 1080 0
37 -1081 -1112 0
-37 1081 0
-37 1112 0
1112 -1082 -1083 0
-1112 1082 0
-1112 1083 0
